column=9;
row=9;
Board=[|0,0,0,0,1,7,4,0,0|7,0,0,0,0,5,3,9,8|3,0,0,6,0,0,0,2,1|0,3,7,0,0,0,0,0,2|0,8,5,4,7,2,9,0,0|0,0,9,5,0,0,1,0,7|8,0,0,0,0,0,0,0,0|4,0,3,0,0,0,0,0,0|0,7,0,0,0,0,2,0,0|];
horizontal=[|0,0,0,0,0,0,1,0|0,0,0,0,0,0,0,2|0,2,1,1,0,0,2,0|0,1,0,2,2,1,2,0|1,0,2,1,0,0,0,0|0,1,0,0,0,0,0,0|0,0,0,0,0,2,2,0|0,0,0,0,1,0,2,2|0,0,0,0,0,0,0,0|];
vertical=[|2,1,0,2,0,0,2,1,1|2,0,0,1,1,0,0,0,0|0,2,0,0,0,0,2,0,1|0,1,2,0,0,0,0,1,1|0,0,0,0,0,0,0,0,1|1,0,0,0,0,0,1,0,0|0,0,1,2,0,0,0,0,1|1,0,1,0,0,0,0,0,1|];
